
  32    1
  10

   0   0   3 2 3 5 
   4   1   3 7 6 4 
   2   1   2 9 4 
   5   1   5 15 13 12 11 10 
   8   1   4 18 15 11 8 
   8   1   3 13 10 8 
   6   1   4 18 15 12 11 
   6   4   2 19 9 
   5   4   2 14 12 
   6   2   5 25 22 19 18 16 
   3   1   2 17 14 
   1   2   4 27 25 17 16 
   7   2   1 14 
   9   3   4 27 25 22 16 
   6   2   3 27 25 16 
   9   2   3 23 21 20 
   3   2   3 23 22 20 
   4   3   2 21 20 
   2   1   2 27 20 
   6   3   2 26 24 
   5   4   2 26 24 
   4   3   2 26 24 
   5   2   2 28 26 
   7   3   2 31 28 
   7   1   2 31 28 
   7   2   3 31 30 29 
   9   2   3 31 30 29 
   7   1   2 30 29 
   7   1   1 32
  10   3   1 32
   1   1   1 32
   0   0   0 
